p wcnf 1000 200 1
1 1 0
1 2 0
1 3 0
1 4 0
1 5 0
1 6 0
1 7 0
1 8 0
1 9 0
1 10 0
1 11 0
1 12 0
1 1 1 1 2 2 2 2 2 2 2 2 0
1 2 2 2 2 2 3 3 3 3 3 3 0
1 3 3 4 4 4 4 4 4 4 4 4 0
1 4 4 4 4 4 4 4 5 5 5 5 0
1 5 5 5 5 5 5 6 6 6 6 7 0
1 7 7 7 7 7 7 7 7 8 8 8 0
1 8 9 9 9 9 9 9 9 9 9 9 0
1 10 10 10 10 10 10 10 10 11 11 11 0
1 11 11 11 11 11 11 12 12 12 12 12 0
1 12 12 12 12 12 12 12 13 13 13 13 0
1 13 13 13 13 13 14 14 14 14 14 14 0
1 14 14 15 15 15 15 15 15 15 15 15 0
1 15 15 15 15 15 15 16 16 16 16 16 0
1 16 16 16 16 17 17 17 17 17 17 17 0
1 17 17 18 18 18 18 18 18 18 18 18 0
1 18 18 19 19 19 19 19 19 20 20 20 0
1 20 20 20 20 20 20 20 21 21 21 21 0
1 21 21 22 22 22 22 22 22 22 22 22 0
1 23 23 23 23 23 23 23 24 24 24 24 0
1 24 24 24 24 24 25 25 25 25 25 25 0
1 25 25 25 26 26 26 26 26 26 26 26 0
1 26 26 27 27 27 27 27 27 27 28 28 0
1 28 28 28 28 28 28 28 29 29 29 29 0
1 29 29 30 30 30 30 30 30 30 30 30 0
1 30 30 30 31 31 31 31 31 31 31 31 0
1 32 32 32 32 32 32 32 32 32 32 32 0
1 32 32 33 33 33 33 33 33 33 33 33 0
1 34 34 34 34 34 34 34 34 34 34 34 0
1 35 35 35 35 35 35 35 35 35 35 36 0
1 36 36 36 36 37 37 37 38 38 38 38 0
1 38 38 38 38 38 38 38 38 39 39 39 0
1 39 39 39 39 39 39 39 40 40 40 40 0
1 40 40 40 41 41 41 41 41 41 41 41 0
1 41 41 41 41 41 42 42 42 42 42 42 0
1 42 42 43 43 43 43 43 43 43 43 43 0
1 44 44 44 44 44 44 44 44 44 44 44 0
1 45 45 45 45 45 45 45 45 45 45 45 0
1 45 46 46 46 46 46 46 47 47 47 47 0
1 47 47 47 47 48 48 48 48 48 48 48 0
1 48 48 49 49 49 49 49 49 49 49 49 0
1 49 49 49 50 50 50 50 50 50 50 50 0
1 50 50 50 51 51 51 51 51 51 52 52 0
1 52 52 52 52 52 53 53 53 54 54 54 0
1 54 54 54 54 54 54 54 54 54 54 54 0
1 54 55 55 55 55 56 56 56 56 56 56 0
1 56 56 56 56 56 56 57 57 57 57 57 0
1 57 57 57 57 58 58 58 58 58 58 58 0
1 58 58 58 58 59 59 59 59 59 59 59 0
1 59 59 59 59 59 59 59 59 60 60 60 0
1 60 60 60 60 60 61 61 61 61 61 61 0
1 62 62 62 62 62 62 62 63 63 63 63 0
1 63 63 63 63 64 64 64 64 64 64 64 0
1 64 65 65 65 65 65 65 65 65 65 65 0
1 66 66 66 66 66 66 66 66 66 66 67 0
1 67 67 67 67 67 68 68 68 68 68 68 0
1 69 69 69 69 69 69 69 69 69 69 69 0
1 69 70 70 70 70 70 70 70 70 70 70 0
1 71 71 71 71 71 71 71 71 71 71 71 0
1 71 72 72 72 72 72 72 72 72 72 73 0
1 73 73 73 73 73 74 74 74 74 74 74 0
1 74 74 74 75 75 75 75 76 76 76 76 0
1 76 76 76 76 76 76 76 76 76 76 76 0
1 77 77 77 77 77 77 77 77 77 77 77 0
1 77 78 78 78 78 78 78 78 78 79 79 0
1 79 79 79 79 79 79 80 80 80 80 80 0
1 80 80 80 80 80 81 81 81 81 81 81 0
1 81 81 81 81 81 81 81 81 81 82 82 0
1 82 82 82 82 82 83 83 83 83 83 83 0
1 83 83 83 83 83 83 84 84 84 85 85 0
1 85 85 85 85 86 86 86 86 86 86 86 0
1 86 86 86 87 87 87 87 87 87 87 87 0
1 87 88 88 88 88 88 88 88 89 89 89 0
1 89 89 89 89 90 90 90 90 90 90 90 0
1 90 90 91 91 91 91 91 91 91 91 91 0
1 92 92 92 92 92 92 92 92 92 92 93 0
1 93 93 93 93 93 93 93 93 93 94 94 0
1 94 94 94 94 94 94 94 94 94 94 94 0
1 94 95 95 95 95 95 95 95 95 96 96 0
1 96 96 96 96 96 96 97 97 97 97 97 0
1 97 97 97 97 97 97 97 97 97 98 98 0
1 98 98 98 98 98 98 98 98 99 99 99 0
1 99 99 100 100 100 100 100 100 100 100 100 0
1 100 100 100 0
1  0
1 70 82 132 149 168 286 298 305 313 333 486 0
1 598 660 670 687 715 742 794 803 817 883 908 0
1  0
1 229 232 249 264 381 402 425 471 484 571 604 0
1 682 713 884 0
1  0
1 42 60 78 116 121 268 271 312 389 411 472 0
1 515 557 562 563 770 804 825 833 899 900 903 0
1 957 0
1  0
1 116 120 140 164 178 245 328 331 343 350 386 0
1 572 759 783 785 853 913 948 0
1  0
1 118 131 151 156 186 207 290 404 486 502 518 0
1 609 622 660 700 748 788 805 821 844 926 939 0
1  0
1  0
1 78 185 250 323 332 351 377 384 405 479 517 0
1 631 652 733 739 889 927 929 983 993 0
1  0
1 123 124 129 237 244 415 421 433 645 686 701 0
1 846 857 0
1  0
1 44 74 180 216 223 346 360 401 425 439 450 0
1 526 528 581 635 678 705 848 862 874 876 897 0
1  0
1  0
1 97 170 237 383 487 570 574 575 594 598 695 0
1 716 743 784 819 847 868 919 928 991 0
1  0
1 120 172 253 277 443 486 505 511 529 689 700 0
1 864 941 965 0
1  0
1 120 148 170 187 196 221 247 268 283 329 470 0
1 492 584 590 613 671 674 699 731 813 819 861 0
1 887 915 942 999 0
1  0
1 214 430 529 583 626 650 744 802 842 883 995 0
1  0
1 80 82 155 231 237 247 355 373 409 458 510 0
1 627 674 702 848 870 916 924 925 0
1  0
1 176 317 331 459 468 502 571 579 700 738 762 0
1 960 976 0
1  0
1 45 149 173 205 261 366 369 398 449 525 562 0
1 599 691 708 757 814 869 0
1  0
1 72 194 249 255 293 399 406 428 628 672 728 0
1 914 947 0
1  0
1 70 140 193 317 349 386 401 404 426 447 511 0
1 539 743 779 780 855 916 926 0
1  0
1 43 82 88 109 251 323 326 407 428 597 608 0
1 662 714 741 806 844 905 930 939 946 951 0
1  0
1 23 66 69 114 132 295 399 509 747 750 825 0
1 882 992 0
1  0
1 278 314 350 371 431 435 459 509 518 603 630 0
1 660 712 737 762 854 892 945 956 988 0
1  0
1 31 68 129 152 213 362 382 385 438 464 465 0
1 500 527 532 533 534 567 571 595 642 656 657 0
1 743 915 917 978 0
1  0
1 70 139 154 182 215 363 365 369 374 429 503 0
1 547 653 677 757 807 826 861 866 924 929 951 0
1  0
1 43 59 92 142 222 463 599 631 668 761 858 0
1 910 914 977 0
1  0
1 77 119 252 269 403 453 497 561 576 588 634 0
1 642 643 658 717 720 759 910 913 974 985 990 0
1  0
1 99 146 210 281 294 314 350 381 420 446 449 0
1 545 655 670 743 757 818 838 0
1  0
1 116 191 259 272 287 402 459 552 553 608 718 0
1 729 736 743 805 816 823 868 919 930 931 0
1  0
1 83 88 121 152 223 224 225 306 415 448 490 0
1 514 558 567 575 614 725 803 943 992 0
1  0
1 34 75 113 148 269 275 314 379 398 447 509 0
1 548 646 699 738 800 812 904 943 0
1  0
1 28 117 134 164 332 338 376 403 516 519 650 0
1 671 674 737 738 759 790 836 982 0
1  0
1 40 82 184 226 278 279 375 433 528 603 627 0
1 813 827 846 913 0
1  0
1 122 148 197 218 266 329 374 382 408 471 473 0
1 571 587 602 607 614 642 701 747 874 939 995 0
1  0
1 6 33 89 117 144 156 388 485 549 650 699 0
1 779 782 801 806 839 849 916 937 0
1  0
1 8 115 182 190 400 414 437 469 477 548 558 0
1 674 714 777 818 826 851 857 946 0
1  0
1 29 117 151 239 240 407 450 465 492 509 645 0
1 890 963 0
1  0
1 21 26 50 126 129 206 278 328 329 365 565 0
1 660 715 903 956 998 0
1  0
1 75 106 111 147 166 174 196 216 237 265 351 0
1 405 474 573 668 699 722 741 815 964 0
1  0
1 27 79 158 198 214 307 447 539 562 610 633 0
1 717 788 850 918 938 0
1  0
1 101 106 117 143 163 196 235 291 308 316 349 0
